N = 21;
MinK = 8;
Capacity = 3000;

X = array1d(0..21, [145, 151, 159, 130, 128, 163, 146, 161, 142, 163, 148, 128, 156, 129, 146, 164, 141, 147, 164, 129, 155, 139]);
Y = array1d(0..21, [215, 264, 261, 254, 252, 247, 246, 242, 239, 236, 232, 231, 217, 214, 208, 208, 206, 193, 193, 189, 185, 182]);

Demands = [1100, 700, 800, 1400, 2100, 400, 800, 100, 500, 600, 1200, 1300, 1300, 300, 900, 2100, 1000, 900, 2500, 1800, 700];
